Route #1: 80 122 21 46 111 36 59 32 98 14 11 110
Route #2: 74 121 79 81 42 93 108 133 94 131 128 65 134 76 55
Route #3: 99 123 139 56 47 44 78 107 83 106 112 77 57
Route #4: 105 137 84 69 117 129 48 120 2 19 22 104 29 64
Route #5: 4 82 103 135 41 38 18 12 102 15 136 34 87 90
Route #6: 8 31 85 52 40 9 16 61 60 43 68 101 72 92
Route #7: 30 58 45 66 49 62 20 67 73 118 88 53 127 96
Route #8: 100 3 50 13 91 114 7 6 97 54 130 37 25 86 119
Route #9: 125 63 5 24 27 23 113 26 126 138 115 33 17
Route #10: 10 109 95 70 39 132 35 116 28 124 51 75 71 89
